%BLOCK LATTICE_CART
22.700019999999999       0.000000000000000       0.000000000000000
0.000000000000000       2.447810000000000       0.000000000000000
0.000000000000000       0.000000000000000      20.972590000000000
%ENDBLOCK LATTICE_CART

%BLOCK POSITIONS_FRAC
B  -0.0618949401832870    0.0000000000000000    0.6853862830461090 SPIN=0.6
B   0.0381050598167130    0.5000000000000001    0.6853862830461090 SPIN=0.6
B   0.1381050598167131    0.0000000000000000    0.6853862830461090 SPIN=0.6
B   0.2381050598167131    0.5000000000000001    0.6853862830461090 SPIN=0.6
B   0.3381050598167132    0.0000000000000000    0.6853862830461090 SPIN=0.6
B   0.4381050598167132    0.5000000000000001    0.6853862830461090 SPIN=0.6
B   0.5381050598167132    0.0000000000000000    0.6853862830461090 SPIN=0.6
B   0.6381050598167133    0.5000000000000001    0.6853862830461090 SPIN=0.6
B   0.7381050598167135    0.0000000000000000    0.6853862830461090 SPIN=0.6
B   0.8381050598167145    0.5000000000000001    0.6853862830461090 SPIN=0.6
N   0.0047717598167130   -0.0000005000000003    0.6853862830461090 SPIN=0.6
N   0.1047717598167131    0.4999995000000003    0.6853862830461090 SPIN=0.6
N   0.2047717598167141   -0.0000005000000003    0.6853862830461090 SPIN=0.6
N   0.3047717598167142    0.4999995000000003    0.6853862830461090 SPIN=0.6
N   0.4047717598167130   -0.0000005000000003    0.6853862830461090 SPIN=0.6
N   0.5047717598167133    0.4999995000000003    0.6853862830461090 SPIN=0.6
N   0.6047717598167134   -0.0000005000000003    0.6853862830461090 SPIN=0.6
N   0.7047717598167134    0.4999995000000003    0.6853862830461090 SPIN=0.6
N   0.8047717598167141   -0.0000005000000003    0.6853862830461090 SPIN=0.6
N   0.9047717598167134    0.4999995000000003    0.6853862830461090 SPIN=0.6
Ni   0.0470330000000001    1.0000000000000002    0.3935447169538910 SPIN=5.0
Ni   0.2330120000000001    0.0000000000000000    0.3768577169538911 SPIN=5.0
Ni   0.1170490000000001    0.0000000000000000    0.4822607169538911 SPIN=5.0
Ni   0.0047720000000000    0.0000000000000000    0.5900237169538910 SPIN=5.0
Ni   0.4190710000000012    1.0000000000000002    0.3622827169538911 SPIN=5.0
Ni   0.3025970000000012    1.0000000000000002    0.4666367169538911 SPIN=5.0
Ni   0.1876770000000001    1.0000000000000002    0.5721637169538910 SPIN=5.0
Ni   0.6044800000000013    0.0000000000000000    0.3476517169538910 SPIN=5.0
Ni   0.4883720000000013    0.0000000000000000    0.4523187169538910 SPIN=5.0
Ni   0.3722650000000001    0.0000000000000000    0.5569857169538910 SPIN=5.0
Ni   0.7890670000000014    1.0000000000000002    0.3324737169538911 SPIN=5.0
Ni   0.6741470000000014    1.0000000000000002    0.4380007169538911 SPIN=5.0
Ni   0.5576740000000011    1.0000000000000002    0.5423547169538910 SPIN=5.0
Ni   0.9719720000000014    0.0000000000000000    0.3146137169538910 SPIN=5.0
Ni   0.8596950000000025    0.0000000000000000    0.4223767169538911 SPIN=5.0
Ni   0.7437330000000002    0.0000000000000000    0.5277797169538910 SPIN=5.0
Ni   0.9297110000000024    1.0000000000000002    0.5110927169538910 SPIN=5.0
Ni   0.1396680000000000    0.5000000000000001    0.3847607169538910 SPIN=5.0
Ni   0.0240510000000000    0.5000000000000001    0.4935227169538912 SPIN=5.0
Ni   0.5119200000000004    0.5000000000000001    0.3549477169538910 SPIN=5.0
Ni   0.3954950000000012    0.5000000000000001    0.4595347169538911 SPIN=5.0
Ni   0.2798610000000002    0.5000000000000001    0.5639987169538910 SPIN=5.0
Ni   0.8806840000000026    0.5000000000000001    0.3237827169538910 SPIN=5.0
Ni   0.7670880000000010    0.5000000000000001    0.4303147169538910 SPIN=5.0
Ni   0.6506430000000013    0.5000000000000001    0.5352527169538910 SPIN=5.0
Ni   0.3261010000000011    0.5000000000000001    0.3693847169538910 SPIN=5.0
Ni   0.2096560000000011    0.5000000000000001    0.4743227169538912 SPIN=5.0
Ni   0.0960600000000001    0.5000000000000001    0.5808547169538911 SPIN=5.0
Ni   0.6968830000000014    0.5000000000000001    0.3406387169538910 SPIN=5.0
Ni   0.5812490000000013    0.5000000000000001    0.4451027169538910 SPIN=5.0
Ni   0.4648240000000013    0.5000000000000001    0.5496897169538910 SPIN=5.0
Ni   0.9526930000000026    0.5000000000000001    0.4111147169538910 SPIN=5.0
Ni   0.8370770000000014    0.5000000000000001    0.5198767169538910 SPIN=5.0
%ENDBLOCK POSITIONS_FRAC

FIX_ALL_CELL

%BLOCK IONIC_CONSTRAINTS
1      Ni       1   1.0000000000000000    0.0000000000000000    0.0000000000000000
2      Ni       1   0.0000000000000000    1.0000000000000000    0.0000000000000000
3      Ni       1   0.0000000000000000    0.0000000000000000    1.0000000000000000
4      Ni       2   1.0000000000000000    0.0000000000000000    0.0000000000000000
5      Ni       2   0.0000000000000000    1.0000000000000000    0.0000000000000000
6      Ni       2   0.0000000000000000    0.0000000000000000    1.0000000000000000
7      Ni       5   1.0000000000000000    0.0000000000000000    0.0000000000000000
8      Ni       5   0.0000000000000000    1.0000000000000000    0.0000000000000000
9      Ni       5   0.0000000000000000    0.0000000000000000    1.0000000000000000
10      Ni       8   1.0000000000000000    0.0000000000000000    0.0000000000000000
11      Ni       8   0.0000000000000000    1.0000000000000000    0.0000000000000000
12      Ni       8   0.0000000000000000    0.0000000000000000    1.0000000000000000
13      Ni      11   1.0000000000000000    0.0000000000000000    0.0000000000000000
14      Ni      11   0.0000000000000000    1.0000000000000000    0.0000000000000000
15      Ni      11   0.0000000000000000    0.0000000000000000    1.0000000000000000
16      Ni      14   1.0000000000000000    0.0000000000000000    0.0000000000000000
17      Ni      14   0.0000000000000000    1.0000000000000000    0.0000000000000000
18      Ni      14   0.0000000000000000    0.0000000000000000    1.0000000000000000
19      Ni      18   1.0000000000000000    0.0000000000000000    0.0000000000000000
20      Ni      18   0.0000000000000000    1.0000000000000000    0.0000000000000000
21      Ni      18   0.0000000000000000    0.0000000000000000    1.0000000000000000
22      Ni      20   1.0000000000000000    0.0000000000000000    0.0000000000000000
23      Ni      20   0.0000000000000000    1.0000000000000000    0.0000000000000000
24      Ni      20   0.0000000000000000    0.0000000000000000    1.0000000000000000
25      Ni      23   1.0000000000000000    0.0000000000000000    0.0000000000000000
26      Ni      23   0.0000000000000000    1.0000000000000000    0.0000000000000000
27      Ni      23   0.0000000000000000    0.0000000000000000    1.0000000000000000
28      Ni      26   1.0000000000000000    0.0000000000000000    0.0000000000000000
29      Ni      26   0.0000000000000000    1.0000000000000000    0.0000000000000000
30      Ni      26   0.0000000000000000    0.0000000000000000    1.0000000000000000
31      Ni      29   1.0000000000000000    0.0000000000000000    0.0000000000000000
32      Ni      29   0.0000000000000000    1.0000000000000000    0.0000000000000000
33      Ni      29   0.0000000000000000    0.0000000000000000    1.0000000000000000
%ENDBLOCK IONIC_CONSTRAINTS

%BLOCK SPECIES_POT
C19
%ENDBLOCK SPECIES_POT

KPOINTS_MP_SPACING 0.05

SYMMETRY_GENERATE 

SNAP_TO_SYMMETRY 
