#              Generated by Buildcell
#
# at 00:19:59 (GMT+0.0) 4th March 2024
# in /home/mmm1079/applic/castep-scripts/examples/airss_init_spin
# on login10
# by mmm1079
#
# compiler GCC version 4.9.2
# options -cpp -iprefix /scratch/UCL/applications/gcc/4.9.2/bin/../lib/gcc/x86_64-unknown-linux-gnu/4.9.2/ -mtune=corei7 -march=x86-64 -g -Og
#
# seed   552587276 -1848040222  -116645264 -1839998136   238988760   234467123   163612167  -472622873  1755349984 -1647510388 -1023443338  -259245184
#
#      Author: C. J. Pickard (cjp20@cam.ac.uk)
#                Space group: P2
#

%BLOCK LATTICE_ABC
      2.24921      4.17330      5.59518
     90.00000     90.00000     99.72797
%ENDBLOCK LATTICE_ABC

%BLOCK POSITIONS_FRAC
  Li       -0.0000000        0.0000000        0.4342529
  Ni        0.5000000       -0.0000000       -0.0551530
   O        0.3590213        0.2049570        0.2007242
   O       -0.3590213       -0.2049570        0.2007242
%ENDBLOCK POSITIONS_FRAC

KPOINTS_MP_SPACING 0.07

%BLOCK SPECIES_POT
QC5
%ENDBLOCK SPECIES_POT

SNAP_TO_SYMMETRY
SYMMETRY_GENERATE

